40	1
0 9
0 92
0 83
0 72
0 129
0 38
0 176
0 189
0 39
0 17
0 79
0 156
0 162
0 145
0 84
0 176
0 182
0 129
0 180
0 200
0 54
0 170
0 111
0 114
0 57
0 150
0 185
0 23
0 39
0 19
0 60
0 94
0 172
0 126
0 88
0 129
0 81
0 185
0 116
0 98
